
--- Job 7_steel_v1.gms Start 11/19/25 13:45:34 39.1.1 dbf03b78 WEX-WEI x86 64bit/MS Windows
--- Applying:
    C:\GAMS\39\gmsprmNT.txt
--- GAMS Parameters defined
    Input "C:\Users\Nicolas\OneDrive\Documents\NTNU Fall 2025\Semesteroppgave\Prosjektoppgave_dekarbonisering_i_Mo_industripark\7_steel_v1.gms"
    PageSize 0
    ScrDir "C:\Users\Nicolas\OneDrive\Documents\NTNU Fall 2025\Semesteroppgave\Prosjektoppgave_dekarbonisering_i_Mo_industripark\225a\"
    SysDir C:\GAMS\39\
    LogOption 3
    ErrMsg 1
    ErrorLog 99
    IDE 1
    LstTitleLeftAligned 1
Licensee: Small MUD - 5 User License                     S240604|0002AP-GEN
          Norwegian University of Science and Technology             DC7530
          C:\Users\Nicolas\OneDrive\Documents\GAMS\gamslice.txt
          License Admin: Ruud Egging, ruud.egging@ntnu.no                  
Processor information: 1 socket(s), 4 core(s), and 8 thread(s) available
GAMS 39.1.1   Copyright (C) 1987-2022 GAMS Development. All rights reserved
--- Starting compilation
--- 7_steel_v1.gms(404) 3 Mb
--- Starting execution: elapsed 0:00:00.016
--- 7_steel_v1.gms(328) 4 Mb
--- Generating LP model Steel7_Opt
--- 7_steel_v1.gms(333) 4 Mb
---   625 rows  631 columns  1,665 non-zeroes
--- Range statistics (absolute non-zero finite values)
--- RHS       [min, max] : [ 1.000E+04, 3.000E+05] - Zero values observed as well
--- Bound     [min, max] : [        NA,        NA] - Zero values observed as well
--- Matrix    [min, max] : [ 1.000E-02, 1.390E+04]
--- Executing CPLEX (Solvelink=2): elapsed 0:00:00.025

IBM ILOG CPLEX   39.1.1 dbf03b78 May 18, 2022          WEI x86 64bit/MS Window

--- GAMS/Cplex licensed for continuous and discrete problems.
--- GMO setup time: 0.00s
--- Space for names approximately 0.03 Mb
--- Use option 'names no' to turn use of names off
--- GMO memory 0.64 Mb (peak 0.65 Mb)
--- Dictionary memory 0.00 Mb
--- Cplex 22.1.0.0 link memory 0.02 Mb (peak 0.08 Mb)
--- Starting Cplex

Version identifier: 22.1.0.0 | 2022-03-09 | 1a383f8ce
CPXPARAM_Advance                                 0
CPXPARAM_Threads                                 1
CPXPARAM_MIP_Display                             4
CPXPARAM_MIP_Pool_Capacity                       0
CPXPARAM_MIP_Tolerances_AbsMIPGap                0
Tried aggregator 1 time.
LP Presolve eliminated 382 rows and 325 columns.
Aggregator did 135 substitutions.
Reduced LP has 107 rows, 171 columns, and 499 nonzeros.
Presolve time = 0.00 sec. (0.59 ticks)

Iteration log . . .
Iteration:     1   Dual objective     =    -129302969.028849
Iteration:    62   Dual objective     =     221878734.062274

--- LP status (1): optimal.
--- Cplex Time: 0.00sec (det. 1.08 ticks)


Optimal solution found
Objective:    249844080.068475

--- Reading solution for model Steel7_Opt
--- Executing after solve: elapsed 0:00:00.048
--- 7_steel_v1.gms(395) 4 Mb
--- GDX File (execute_unload) C:\Users\Nicolas\OneDrive\Documents\NTNU Fall 2025\Semesteroppgave\Prosjektoppgave_dekarbonisering_i_Mo_industripark\output_7Steel.gdx
--- 7_steel_v1.gms(404) 4 Mb
*** Status: Normal completion
--- Job 7_steel_v1.gms Stop 11/19/25 13:45:34 elapsed 0:00:00.048
